1.000000 0.500000 0.750000
5
5 2 3 4 5 6 
5 7 8 9 10 11 
5 12 13 14 15 16 
5 17 18 19 20 21 
5 22 23 24 25 26 
1 1 
1 2 
1 2 
1 2 
1 2 
1 2 
1 2 
1 2 
1 2 
1 2 
1 2 
1 2 
1 2 
1 3 
1 3 
1 3 
1 3 
1 3 
1 3 
1 3 
1 3 
1 3 
1 3 
1 3 
1 3 
1 4 
1 4 
1 4 
1 4 
1 4 
1 4 
1 4 
1 4 
1 4 
1 4 
1 4 
1 4 
1 5 
1 5 
1 5 
1 5 
1 5 
1 5 
1 5 
1 5 
1 5 
1 5 
1 5 
1 5 
1 6 
1 6 
1 6 
1 6 
1 6 
1 6 
1 6 
1 6 
1 6 
1 6 
1 6 
1 6 
1 1 
1 7 
1 7 
1 7 
1 7 
1 7 
1 7 
1 7 
1 7 
1 7 
1 7 
1 7 
1 7 
1 8 
1 8 
1 8 
1 8 
1 8 
1 8 
1 8 
1 8 
1 8 
1 8 
1 8 
1 8 
1 9 
1 9 
1 9 
1 9 
1 9 
1 9 
1 9 
1 9 
1 9 
1 9 
1 9 
1 9 
1 10 
1 10 
1 10 
1 10 
1 10 
1 10 
1 10 
1 10 
1 10 
3 10 4 5 
1 10 
3 10 4 5 
1 11 
1 11 
1 11 
1 11 
1 11 
1 11 
1 11 
1 11 
1 11 
1 11 
1 11 
1 11 
1 1 
1 12 
1 12 
1 12 
1 12 
1 12 
1 12 
1 12 
1 12 
1 12 
1 12 
1 12 
1 12 
1 12 
1 12 
1 12 
1 12 
1 12 
1 12 
1 12 
1 12 
1 12 
1 12 
1 12 
1 12 
1 12 
1 12 
1 12 
1 12 
1 12 
1 12 
1 12 
1 12 
1 13 
1 13 
1 13 
2 13 2 
3 13 2 10 
3 13 2 10 
3 13 2 10 
2 13 2 
1 13 
3 13 2 10 
3 13 2 10 
3 13 2 10 
1 13 
3 13 2 10 
3 13 2 10 
3 13 2 10 
3 13 2 10 
3 13 2 10 
3 13 2 10 
3 13 2 10 
3 13 2 10 
3 13 2 10 
3 13 2 10 
3 13 2 10 
3 13 2 10 
3 13 2 10 
3 13 2 10 
3 13 2 10 
3 13 2 10 
3 13 2 10 
3 13 2 10 
3 13 2 10 
1 14 
1 14 
1 14 
1 14 
1 14 
1 14 
1 14 
1 14 
1 14 
1 14 
1 14 
1 14 
1 14 
1 14 
1 14 
1 14 
1 14 
1 14 
1 14 
1 14 
1 14 
1 14 
1 14 
1 14 
1 14 
1 14 
1 14 
1 14 
1 14 
1 14 
1 14 
1 14 
1 15 
1 15 
1 15 
1 15 
2 15 8 
1 15 
1 15 
2 15 8 
1 15 
2 15 8 
2 15 8 
2 15 8 
1 16 
1 16 
1 16 
1 16 
1 16 
1 16 
1 16 
1 16 
1 16 
1 16 
1 16 
1 16 
1 16 
1 16 
1 16 
1 16 
1 16 
1 16 
1 16 
1 16 
1 16 
1 16 
1 16 
1 16 
1 16 
1 16 
1 16 
1 16 
1 16 
1 16 
1 16 
1 16 
1 17 
1 17 
1 17 
1 17 
1 17 
1 17 
1 17 
1 17 
3 17 15 8 
3 17 15 8 
1 17 
1 17 
1 17 
3 17 15 8 
3 17 15 8 
4 17 7 15 8 
4 17 7 15 8 
4 17 7 15 8 
3 17 15 8 
3 17 15 8 
3 17 15 8 
4 17 7 15 8 
1 18 
1 18 
1 18 
1 18 
1 18 
1 18 
1 18 
1 18 
1 18 
2 18 16 
2 18 16 
1 18 
1 18 
2 18 14 
1 18 
1 18 
1 18 
1 18 
1 18 
1 18 
1 18 
3 18 14 16 
1 19 
1 19 
1 19 
1 19 
1 19 
1 19 
1 19 
1 19 
1 19 
1 19 
1 19 
1 19 
1 19 
1 19 
1 19 
1 19 
1 19 
1 19 
1 19 
1 19 
1 19 
1 19 
1 20 
1 20 
1 20 
1 20 
1 20 
1 20 
1 20 
1 20 
1 20 
1 20 
1 20 
1 20 
1 21 
1 21 
1 21 
2 21 9 
1 21 
2 21 9 
2 21 9 
2 21 9 
5 21 9 13 2 10 
2 21 9 
5 21 9 13 2 10 
8 21 9 13 2 10 17 15 8 
2 21 9 
2 21 9 
8 21 9 13 2 10 17 15 8 
5 21 9 13 2 10 
5 21 9 13 2 10 
2 21 9 
2 21 9 
2 21 9 
2 21 9 
8 21 9 13 2 10 17 15 8 
1 22 
1 22 
1 22 
1 22 
1 22 
1 22 
1 22 
1 22 
1 22 
2 22 19 
1 22 
2 22 19 
1 23 
1 23 
1 23 
1 23 
1 23 
1 23 
1 23 
1 23 
1 23 
1 23 
1 23 
1 23 
1 24 
1 24 
1 24 
1 24 
1 24 
1 24 
1 24 
1 24 
1 24 
1 24 
1 24 
1 24 
1 25 
3 25 3 6 
3 25 3 6 
3 25 3 6 
3 25 3 6 
1 25 
3 25 3 6 
1 25 
1 25 
4 25 3 6 12 
3 25 3 6 
4 25 3 6 12 
1 26 
1 26 
2 26 11 
1 26 
4 26 11 18 16 
4 26 11 18 16 
1 26 
1 26 
2 26 11 
4 26 11 18 16 
1 26 
4 26 11 18 16 
1 1 
